(declare-const |param1':172| Int)
(declare-const havoc Int)
(declare-const |param0':171| Int)
(declare-const |havoc:2| Int)
(declare-const |return':170| Int)
(assert (and (<= (- havoc) 0) (<= (- |havoc:2|) 0)
               (= (+ |param1':172| (- |havoc:2|) (- havoc)) 0)
               (= (+ |return':170| (- |havoc:2|) (- havoc)) 0)
               (= |param0':171| 0) (<= (- havoc) 0)
               (or (< (+ |return':170| (- |havoc:2|) (- havoc)) 0)
                     (< (+ (- |return':170|) |havoc:2| havoc) 0))))
(check-sat)
